(declare-const delta_j Int)
(declare-const delta_i Int)
(declare-const delta_t Int)
(assert (exists
         ((|t'?1| Int) (|j'?2| Int) (|S1,0?3| Real) (|i'?4| Int)
            (KSUM1?5 Int) (|K1,0?6| Int) (K?7 Int) (|j'?8| Int)
            (|S1,0?9| Real) (|i'?10| Int) (KSUM1?11 Int) (|K1,0?12| Int)
            (K?13 Int) (|i'?14| Int) (|j'?15| Int) (j?16 Int) (n?17 Int)
            (i?18 Int) (tsteps?19 Int) (t?20 Int))
         (and (<= (- t?20) 0) (< (+ (- tsteps?19) t?20) 0) (<= (- K?13) 0)
                (<= (- |K1,0?12|) 0) (= (+ |K1,0?12| (- K?13)) 0)
                (<= (+ KSUM1?11 (- K?13)) 0)
                (= (+ (- |S1,0?9|) |i'?10| (- |K1,0?12|)) 0)
                (= (+ (- KSUM1?11) |K1,0?12|) 0) (= (+ |S1,0?9| -1) 0)
                (or (and (= K?13 0) (= (+ (- |j'?8|) j?16) 0)
                           (= (+ (- |i'?10|) 1) 0))
                      (and (<= (+ (- K?13) 1) 0) (<= (+ (- n?17) 3) 0)
                             (= (+ n?17 (- |j'?8|) -1) 0)
                             (<= (+ (- |i'?10|) 2) 0)
                             (<= (+ (- |j'?8|) |i'?10|) 0)))
                (= (+ |i'?10| (- K?13) -1) 0) (<= (- K?13) 0)
                (< (- |i'?10|) 0) (<= (+ n?17 (- |i'?10|) -1) 0)
                (<= (- K?7) 0) (<= (- |K1,0?6|) 0) (= (+ |K1,0?6| (- K?7)) 0)
                (<= (+ KSUM1?5 (- K?7)) 0)
                (= (+ (- |S1,0?3|) |i'?4| (- |K1,0?6|)) 0)
                (= (+ (- KSUM1?5) |K1,0?6|) 0) (= (+ |S1,0?3| -1) 0)
                (or (and (= K?7 0) (= (+ (- |j'?2|) |j'?8|) 0)
                           (= (+ (- |i'?4|) 1) 0))
                      (and (<= (+ (- K?7) 1) 0) (<= (+ (- n?17) 3) 0)
                             (= (+ (- |j'?2|) n?17 -1) 0)
                             (<= (+ (- |i'?4|) 2) 0)
                             (<= (+ (- |j'?2|) |i'?4|) 0)))
                (= (+ |i'?4| (- K?7) -1) 0) (<= (- K?7) 0) (< (- |i'?4|) 0)
                (<= (+ (- |i'?4|) n?17 -1) 0) (= (+ |j'?15| (- |j'?2|)) 0)
                (= (+ |i'?14| (- |i'?4|)) 0) (= (+ |t'?1| (- t?20) -1) 0)
                (= delta_t (+ |t'?1| (- t?20)))
                (= delta_i (+ |i'?14| (- i?18)))
                (= delta_j (+ |j'?15| (- j?16))))))
(check-sat)
